w = 15;
n = 25;
measures = [|3, 11,
|3, 13,
|2, 9,
|2, 7,
|3, 9,
|3, 7,
|2, 11,
|2, 13,
|4, 11,
|4, 13,
|5, 3,
|2, 11,
|2, 2,
|3, 11,
|3, 2,
|4, 5,
|4, 6,
|2, 12,
|2, 1,
|5, 3,
|5, 13,
|4, 12,
|4, 1,
|2, 5,
|2, 6,
|];
initial_x = [0, 3, 6, 8, 10, 0, 3, 5, 7, 11, 0, 5, 7, 9, 12, 0, 4, 8, 10, 0, 5, 10, 0, 4, 6];
initial_y = [0, 0, 0, 0, 0, 13, 13, 13, 13, 13, 26, 26, 26, 26, 26, 37, 37, 37, 37, 49, 49, 49, 62, 62, 62];